c User generated cnf file
p cnf 14 69
-5 7 11 0 
10 -8 3 0 
-1 3 13 0 
-3 13 6 0 
-9 14 8 0 
11 -7 4 0 
8 -12 8 0 
10 -2 8 0 
6 -3 12 0 
-11 1 2 0 
-12 6 3 0 
13 12 -6 0 
-12 12 5 0 
3 3 -6 0 
-1 10 5 0 
-14 11 11 0 
2 -8 10 0 
-9 7 9 0 
4 11 -13 0 
-11 1 3 0 
12 -2 9 0 
11 9 -12 0 
-8 12 8 0 
-5 6 13 0 
-12 12 3 0 
12 14 -10 0 
-13 1 8 0 
12 -13 12 0 
8 -13 14 0 
-8 3 13 0 
-5 7 10 0 
-2 9 4 0 
-9 8 13 0 
10 -7 14 0 
-11 11 13 0 
2 2 -2 0 
-13 14 9 0 
-13 3 12 0 
1 -2 11 0 
-5 6 13 0 
10 4 -4 0 
-10 13 7 0 
-3 12 10 0 
-9 8 1 0 
14 5 -12 0 
10 10 -13 0 
3 3 -3 0 
-11 3 4 0 
14 10 -13 0 
-1 8 14 0 
13 1 -8 0 
-1 5 1 0 
2 -6 9 0 
10 2 -8 0 
10 -5 2 0 
9 -6 10 0 
-6 8 8 0 
-1 1 6 0 
-6 1 12 0 
4 -5 2 0 
7 12 -5 0 
7 -7 1 0 
-9 1 1 0 
11 -5 7 0 
6 13 -1 0 
8 -12 9 0 
-14 14 10 0 
-13 10 3 0 
-3 10 13 0 
